# 46005
param k := 6;
param n := 60;
param s := 1;
set E :=  (0,32) (1,14) (1,45) (2,7) (2,19) (2,22) (2,31) (3,38) (4,32) (4,39) (5,23) (6,16) (6,58) (6,59) (7,27) (8,27) (9,13) (9,15) (10,39) (11,13) (11,25) (11,41) (12,17) (12,44) (12,50) (13,52) (14,43) (14,53) (14,59) (15,26) (15,42) (17,46) (18,19) (18,21) (20,52) (21,23) (23,43) (23,52) (23,54) (24,25) (24,28) (25,32) (26,56) (27,35) (29,51) (30,56) (31,57) (32,48) (33,38) (34,54) (36,43) (37,38) (37,40) (37,56) (38,51) (42,49) (43,47) (46,48) (47,55);